(declare-const c_0 Real)
(declare-const c_1 Real)
(declare-const c_2 Real)
(declare-const c_3 Real)
(declare-const c_4 Real)
(declare-const c_5 Real)
(declare-const c_6 Real)
(declare-const c_7 Real)
(declare-const c_8 Real)
(declare-const c_9 Real)
(declare-const c_10 Real)
(declare-const c_11 Real)
(declare-const c_12 Real)
(declare-const c_13 Real)
(declare-const c_14 Real)
(declare-const c_15 Real)
(declare-const c_16 Real)
(declare-const c_17 Real)
(declare-const c_18 Real)
(declare-const c_19 Real)
(declare-const c_20 Real)
(declare-const c_21 Real)
(declare-const c_22 Real)
(declare-const c_23 Real)
(declare-const s_0 Real)
(declare-const s_1 Real)
(declare-const s_2 Real)
(declare-const s_3 Real)
(declare-const s_4 Real)
(declare-const s_5 Real)
(declare-const s_6 Real)
(declare-const s_7 Real)
(declare-const s_8 Real)
(declare-const s_9 Real)
(declare-const s_10 Real)
(declare-const s_11 Real)
(declare-const s_12 Real)
(declare-const s_13 Real)
(declare-const s_14 Real)
(declare-const s_15 Real)
(declare-const s_16 Real)
(declare-const s_17 Real)
(declare-const s_18 Real)
(declare-const s_19 Real)
(declare-const s_20 Real)
(declare-const s_21 Real)
(declare-const s_22 Real)
(declare-const s_23 Real)
(assert (forall ((x Real) (y Real) ) (=> (and (>= (+ (* 1024 1) (* 1 x ) ) 0) (>= (+ (* 1023 1) (* (- 1) x ) ) 0) (>= (+ (* 1024 1) (* 1 y ) ) 0) (>= (+ (* 1023 1) (* (- 1) y ) ) 0) ) (>= (+ (* 1 s_0 ) (* 1 s_1 x ) (* 1 s_2 x y ) (* 1 s_3 x x ) (* 1 s_4 y ) (* 1 s_5 y y ) ) 0) )))
(assert (forall ((x Real) (y Real) ) (=> (and (>= (+ (* 1024 1) (* 1 x ) ) 0) (>= (+ (* 1023 1) (* (- 1) x ) ) 0) (>= (+ (* 1024 1) (* 1 y ) ) 0) (>= (+ (* 1023 1) (* (- 1) y ) ) 0) ) (>= (+ (* 1 c_0 ) (* 1 c_1 x ) (* 1 c_2 x y ) (* 1 c_3 x x ) (* 1 c_4 y ) (* 1 c_5 y y ) ) 0) )))
(assert (forall ((x Real) (y Real) ) (=> (and (>= (+ (* (- 2) 1) (* 1 x ) ) 0) (>= (+ (* 3069 1) (* (- 1) x ) (* (- 2) y ) ) 0) (>= (+ (* 1024 1) (* 1 y ) ) 0) (>= (+ (* 1024 1) (* 1 x ) ) 0) (>= (+ (* 1 s_0 ) (* 1 s_1 x ) (* 1 s_2 x y ) (* 1 s_3 x x ) (* 1 s_4 y ) (* 1 s_5 y y ) ) 0) ) (>= (+ (* 1 s_12 ) (* (- 1) s_13 ) (* 1 s_13 x ) (* 1 s_14 ) (* (- 2) s_14 x ) (* 1 s_14 x y ) (* 1 s_14 x x ) (* (- 1) s_14 y ) (* 1 s_15 ) (* (- 2) s_15 x ) (* 1 s_15 x x ) (* (- 1) s_16 ) (* 1 s_16 x ) (* 1 s_16 y ) (* 1 s_17 ) (* (- 2) s_17 x ) (* 2 s_17 x y ) (* 1 s_17 x x ) (* (- 2) s_17 y ) (* 1 s_17 y y ) ) 0) )))
(assert (forall ((x Real) (y Real) ) (=> (and (>= (+ (* (- 2) 1) (* 1 x ) ) 0) (>= (+ (* 3069 1) (* (- 1) x ) (* (- 2) y ) ) 0) (>= (+ (* 1024 1) (* 1 y ) ) 0) (>= (+ (* 1024 1) (* 1 x ) ) 0) (>= (+ (* 1 s_0 ) (* 1 s_1 x ) (* 1 s_2 x y ) (* 1 s_3 x x ) (* 1 s_4 y ) (* 1 s_5 y y ) ) 0) ) (>= (+ (* 1 c_12 ) (* (- 1) c_13 ) (* 1 c_13 x ) (* 1 c_14 ) (* (- 2) c_14 x ) (* 1 c_14 x y ) (* 1 c_14 x x ) (* (- 1) c_14 y ) (* 1 c_15 ) (* (- 2) c_15 x ) (* 1 c_15 x x ) (* (- 1) c_16 ) (* 1 c_16 x ) (* 1 c_16 y ) (* 1 c_17 ) (* (- 2) c_17 x ) (* 2 c_17 x y ) (* 1 c_17 x x ) (* (- 2) c_17 y ) (* 1 c_17 y y ) ) 0) )))
(assert (forall ((x Real) (y Real) ) (=> (and (>= (+ (* (- 2) 1) (* 1 x ) ) 0) (>= (+ (* 3069 1) (* (- 1) x ) (* (- 2) y ) ) 0) (>= (+ (* 1024 1) (* 1 y ) ) 0) (>= (+ (* 1024 1) (* 1 x ) ) 0) (>= (+ (* 1 s_0 ) (* 1 s_1 x ) (* 1 s_2 x y ) (* 1 s_3 x x ) (* 1 s_4 y ) (* 1 s_5 y y ) ) 0) ) (>= (+ (* (- 1) 1) (* 1 c_0 ) (* 1 c_1 x ) (* (- 1) c_12 ) (* 1 c_13 ) (* (- 1) c_13 x ) (* (- 1) c_14 ) (* 2 c_14 x ) (* (- 1) c_14 x y ) (* (- 1) c_14 x x ) (* 1 c_14 y ) (* (- 1) c_15 ) (* 2 c_15 x ) (* (- 1) c_15 x x ) (* 1 c_16 ) (* (- 1) c_16 x ) (* (- 1) c_16 y ) (* (- 1) c_17 ) (* 2 c_17 x ) (* (- 2) c_17 x y ) (* (- 1) c_17 x x ) (* 2 c_17 y ) (* (- 1) c_17 y y ) (* 1 c_2 x y ) (* 1 c_3 x x ) (* 1 c_4 y ) (* 1 c_5 y y ) ) 0) )))
(assert (forall ((x Real) (y Real) ) (=> (and (>= (+ (* 1 1) (* (- 1) x ) ) 0) (>= (+ (* 3069 1) (* (- 1) x ) (* (- 2) y ) ) 0) (>= (+ (* 1024 1) (* 1 y ) ) 0) (>= (+ (* 1024 1) (* 1 x ) ) 0) (>= (+ (* 1 s_0 ) (* 1 s_1 x ) (* 1 s_2 x y ) (* 1 s_3 x x ) (* 1 s_4 y ) (* 1 s_5 y y ) ) 0) ) (>= (+ (* 1 s_18 ) (* 1 s_19 x ) (* 1 s_20 x y ) (* 1 s_21 x x ) (* 1 s_22 y ) (* 1 s_23 y y ) ) 0) )))
(assert (forall ((x Real) (y Real) ) (=> (and (>= (+ (* 1 1) (* (- 1) x ) ) 0) (>= (+ (* 3069 1) (* (- 1) x ) (* (- 2) y ) ) 0) (>= (+ (* 1024 1) (* 1 y ) ) 0) (>= (+ (* 1024 1) (* 1 x ) ) 0) (>= (+ (* 1 s_0 ) (* 1 s_1 x ) (* 1 s_2 x y ) (* 1 s_3 x x ) (* 1 s_4 y ) (* 1 s_5 y y ) ) 0) ) (>= (+ (* 1 c_18 ) (* 1 c_19 x ) (* 1 c_20 x y ) (* 1 c_21 x x ) (* 1 c_22 y ) (* 1 c_23 y y ) ) 0) )))
(assert (forall ((x Real) (y Real) ) (=> (and (>= (+ (* (- 3) 1) (* (- 1) x ) (* 1 y ) ) 0) (>= (+ (* (- 1) x ) (* 1 y ) ) 0) (>= (+ (* 3066 1) (* 1 x ) (* (- 2) y ) ) 0) (>= (+ (* (- 1) 1) (* 1 x ) ) 0) (>= (+ (* 1 s_10 y ) (* 1 s_11 y y ) (* 1 s_6 ) (* 1 s_7 x ) (* 1 s_8 x y ) (* 1 s_9 x x ) ) 0) ) (>= (+ (* (- 2) s_10 ) (* 1 s_10 y ) (* 4 s_11 ) (* (- 4) s_11 y ) (* 1 s_11 y y ) (* 1 s_6 ) (* 1 s_7 ) (* 1 s_7 x ) (* (- 2) s_8 ) (* (- 2) s_8 x ) (* 1 s_8 x y ) (* 1 s_8 y ) (* 1 s_9 ) (* 2 s_9 x ) (* 1 s_9 x x ) ) 0) )))
(assert (forall ((x Real) (y Real) ) (=> (and (>= (+ (* (- 3) 1) (* (- 1) x ) (* 1 y ) ) 0) (>= (+ (* (- 1) x ) (* 1 y ) ) 0) (>= (+ (* 3066 1) (* 1 x ) (* (- 2) y ) ) 0) (>= (+ (* (- 1) 1) (* 1 x ) ) 0) (>= (+ (* 1 s_10 y ) (* 1 s_11 y y ) (* 1 s_6 ) (* 1 s_7 x ) (* 1 s_8 x y ) (* 1 s_9 x x ) ) 0) ) (>= (+ (* (- 2) c_10 ) (* 1 c_10 y ) (* 4 c_11 ) (* (- 4) c_11 y ) (* 1 c_11 y y ) (* 1 c_6 ) (* 1 c_7 ) (* 1 c_7 x ) (* (- 2) c_8 ) (* (- 2) c_8 x ) (* 1 c_8 x y ) (* 1 c_8 y ) (* 1 c_9 ) (* 2 c_9 x ) (* 1 c_9 x x ) ) 0) )))
(assert (forall ((x Real) (y Real) ) (=> (and (>= (+ (* (- 3) 1) (* (- 1) x ) (* 1 y ) ) 0) (>= (+ (* (- 1) x ) (* 1 y ) ) 0) (>= (+ (* 3066 1) (* 1 x ) (* (- 2) y ) ) 0) (>= (+ (* (- 1) 1) (* 1 x ) ) 0) (>= (+ (* 1 s_10 y ) (* 1 s_11 y y ) (* 1 s_6 ) (* 1 s_7 x ) (* 1 s_8 x y ) (* 1 s_9 x x ) ) 0) ) (>= (+ (* (- 1) 1) (* 2 c_10 ) (* (- 4) c_11 ) (* 4 c_11 y ) (* (- 1) c_7 ) (* 2 c_8 ) (* 2 c_8 x ) (* (- 1) c_8 y ) (* (- 1) c_9 ) (* (- 2) c_9 x ) ) 0) )))
(assert (forall ((x Real) (y Real) ) (=> (and (>= (+ (* 2 1) (* 1 x ) (* (- 1) y ) ) 0) (>= (+ (* (- 1) x ) (* 1 y ) ) 0) (>= (+ (* 3066 1) (* 1 x ) (* (- 2) y ) ) 0) (>= (+ (* (- 1) 1) (* 1 x ) ) 0) (>= (+ (* 1 s_10 y ) (* 1 s_11 y y ) (* 1 s_6 ) (* 1 s_7 x ) (* 1 s_8 x y ) (* 1 s_9 x x ) ) 0) ) (>= (+ (* 1 s_12 ) (* 1 s_13 x ) (* (- 1) s_14 x ) (* 1 s_14 x y ) (* 1 s_15 x x ) (* (- 1) s_16 ) (* 1 s_16 y ) (* 1 s_17 ) (* (- 2) s_17 y ) (* 1 s_17 y y ) ) 0) )))
(assert (forall ((x Real) (y Real) ) (=> (and (>= (+ (* 2 1) (* 1 x ) (* (- 1) y ) ) 0) (>= (+ (* (- 1) x ) (* 1 y ) ) 0) (>= (+ (* 3066 1) (* 1 x ) (* (- 2) y ) ) 0) (>= (+ (* (- 1) 1) (* 1 x ) ) 0) (>= (+ (* 1 s_10 y ) (* 1 s_11 y y ) (* 1 s_6 ) (* 1 s_7 x ) (* 1 s_8 x y ) (* 1 s_9 x x ) ) 0) ) (>= (+ (* 1 c_12 ) (* 1 c_13 x ) (* (- 1) c_14 x ) (* 1 c_14 x y ) (* 1 c_15 x x ) (* (- 1) c_16 ) (* 1 c_16 y ) (* 1 c_17 ) (* (- 2) c_17 y ) (* 1 c_17 y y ) ) 0) )))
(assert (forall ((x Real) (y Real) ) (=> (and (>= (+ (* 2 1) (* 1 x ) (* (- 1) y ) ) 0) (>= (+ (* (- 1) x ) (* 1 y ) ) 0) (>= (+ (* 3066 1) (* 1 x ) (* (- 2) y ) ) 0) (>= (+ (* (- 1) 1) (* 1 x ) ) 0) (>= (+ (* 1 s_10 y ) (* 1 s_11 y y ) (* 1 s_6 ) (* 1 s_7 x ) (* 1 s_8 x y ) (* 1 s_9 x x ) ) 0) ) (>= (+ (* (- 1) 1) (* 1 c_10 y ) (* 1 c_11 y y ) (* (- 1) c_12 ) (* (- 1) c_13 x ) (* 1 c_14 x ) (* (- 1) c_14 x y ) (* (- 1) c_15 x x ) (* 1 c_16 ) (* (- 1) c_16 y ) (* (- 1) c_17 ) (* 2 c_17 y ) (* (- 1) c_17 y y ) (* 1 c_6 ) (* 1 c_7 x ) (* 1 c_8 x y ) (* 1 c_9 x x ) ) 0) )))
(assert (forall ((x Real) (y Real) ) (=> (and (>= (+ (* (- 1) x ) (* 1 y ) ) 0) (>= (+ (* 3066 1) (* 1 x ) (* (- 2) y ) ) 0) (>= (+ (* (- 1) 1) (* 1 x ) ) 0) (>= (+ (* 1 s_10 y ) (* 1 s_11 y y ) (* 1 s_6 ) (* 1 s_7 x ) (* 1 s_8 x y ) (* 1 s_9 x x ) ) 0) ) (>= (+ (* 1 s_12 ) (* 1 s_13 x ) (* (- 1) s_14 x ) (* 1 s_14 x y ) (* 1 s_15 x x ) (* (- 1) s_16 ) (* 1 s_16 y ) (* 1 s_17 ) (* (- 2) s_17 y ) (* 1 s_17 y y ) ) 0) )))
(assert (forall ((x Real) (y Real) ) (=> (and (>= (+ (* (- 1) x ) (* 1 y ) ) 0) (>= (+ (* 3066 1) (* 1 x ) (* (- 2) y ) ) 0) (>= (+ (* (- 1) 1) (* 1 x ) ) 0) (>= (+ (* 1 s_10 y ) (* 1 s_11 y y ) (* 1 s_6 ) (* 1 s_7 x ) (* 1 s_8 x y ) (* 1 s_9 x x ) ) 0) ) (>= (+ (* 1 c_12 ) (* 1 c_13 x ) (* (- 1) c_14 x ) (* 1 c_14 x y ) (* 1 c_15 x x ) (* (- 1) c_16 ) (* 1 c_16 y ) (* 1 c_17 ) (* (- 2) c_17 y ) (* 1 c_17 y y ) ) 0) )))
(assert (forall ((x Real) (y Real) ) (=> (and (>= (+ (* (- 1) x ) (* 1 y ) ) 0) (>= (+ (* 3066 1) (* 1 x ) (* (- 2) y ) ) 0) (>= (+ (* (- 1) 1) (* 1 x ) ) 0) (>= (+ (* 1 s_10 y ) (* 1 s_11 y y ) (* 1 s_6 ) (* 1 s_7 x ) (* 1 s_8 x y ) (* 1 s_9 x x ) ) 0) ) (>= (+ (* (- 1) 1) (* 1 c_10 y ) (* 1 c_11 y y ) (* (- 1) c_12 ) (* (- 1) c_13 x ) (* 1 c_14 x ) (* (- 1) c_14 x y ) (* (- 1) c_15 x x ) (* 1 c_16 ) (* (- 1) c_16 y ) (* (- 1) c_17 ) (* 2 c_17 y ) (* (- 1) c_17 y y ) (* 1 c_6 ) (* 1 c_7 x ) (* 1 c_8 x y ) (* 1 c_9 x x ) ) 0) )))
(assert (forall ((x Real) (y Real) ) (=> (and (>= (+ (* (- 1) 1) (* (- 1) x ) (* 1 y ) ) 0) (>= (+ (* 1024 1) (* (- 1) x ) (* 1 y ) ) 0) (>= (+ (* 3068 1) (* 1 x ) (* (- 2) y ) ) 0) (>= (+ (* (- 1) 1) (* 1 x ) ) 0) (>= (+ (* 1 s_12 ) (* 1 s_13 x ) (* 1 s_14 x y ) (* 1 s_15 x x ) (* 1 s_16 y ) (* 1 s_17 y y ) ) 0) ) (>= (+ (* (- 1) s_10 ) (* 1 s_10 y ) (* 1 s_11 ) (* (- 2) s_11 y ) (* 1 s_11 y y ) (* 1 s_6 ) (* 1 s_7 x ) (* (- 1) s_8 x ) (* 1 s_8 x y ) (* 1 s_9 x x ) ) 0) )))
(assert (forall ((x Real) (y Real) ) (=> (and (>= (+ (* (- 1) 1) (* (- 1) x ) (* 1 y ) ) 0) (>= (+ (* 1024 1) (* (- 1) x ) (* 1 y ) ) 0) (>= (+ (* 3068 1) (* 1 x ) (* (- 2) y ) ) 0) (>= (+ (* (- 1) 1) (* 1 x ) ) 0) (>= (+ (* 1 s_12 ) (* 1 s_13 x ) (* 1 s_14 x y ) (* 1 s_15 x x ) (* 1 s_16 y ) (* 1 s_17 y y ) ) 0) ) (>= (+ (* (- 1) c_10 ) (* 1 c_10 y ) (* 1 c_11 ) (* (- 2) c_11 y ) (* 1 c_11 y y ) (* 1 c_6 ) (* 1 c_7 x ) (* (- 1) c_8 x ) (* 1 c_8 x y ) (* 1 c_9 x x ) ) 0) )))
(assert (forall ((x Real) (y Real) ) (=> (and (>= (+ (* (- 1) 1) (* (- 1) x ) (* 1 y ) ) 0) (>= (+ (* 1024 1) (* (- 1) x ) (* 1 y ) ) 0) (>= (+ (* 3068 1) (* 1 x ) (* (- 2) y ) ) 0) (>= (+ (* (- 1) 1) (* 1 x ) ) 0) (>= (+ (* 1 s_12 ) (* 1 s_13 x ) (* 1 s_14 x y ) (* 1 s_15 x x ) (* 1 s_16 y ) (* 1 s_17 y y ) ) 0) ) (>= (+ (* (- 1) 1) (* 1 c_10 ) (* (- 1) c_10 y ) (* (- 1) c_11 ) (* 2 c_11 y ) (* (- 1) c_11 y y ) (* 1 c_12 ) (* 1 c_13 x ) (* 1 c_14 x y ) (* 1 c_15 x x ) (* 1 c_16 y ) (* 1 c_17 y y ) (* (- 1) c_6 ) (* (- 1) c_7 x ) (* 1 c_8 x ) (* (- 1) c_8 x y ) (* (- 1) c_9 x x ) ) 0) )))
(assert (forall ((x Real) (y Real) ) (=> (and (>= (+ (* 1 x ) (* (- 1) y ) ) 0) (>= (+ (* 1024 1) (* (- 1) x ) (* 1 y ) ) 0) (>= (+ (* 3068 1) (* 1 x ) (* (- 2) y ) ) 0) (>= (+ (* (- 1) 1) (* 1 x ) ) 0) (>= (+ (* 1 s_12 ) (* 1 s_13 x ) (* 1 s_14 x y ) (* 1 s_15 x x ) (* 1 s_16 y ) (* 1 s_17 y y ) ) 0) ) (>= (+ (* 1 s_0 ) (* (- 1) s_1 ) (* 1 s_1 x ) (* (- 1) s_2 ) (* 2 s_2 x ) (* 1 s_2 x y ) (* (- 1) s_2 x x ) (* (- 1) s_2 y ) (* 1 s_3 ) (* (- 2) s_3 x ) (* 1 s_3 x x ) (* 1 s_4 ) (* (- 1) s_4 x ) (* 1 s_4 y ) (* 1 s_5 ) (* (- 2) s_5 x ) (* (- 2) s_5 x y ) (* 1 s_5 x x ) (* 2 s_5 y ) (* 1 s_5 y y ) ) 0) )))
(assert (forall ((x Real) (y Real) ) (=> (and (>= (+ (* 1 x ) (* (- 1) y ) ) 0) (>= (+ (* 1024 1) (* (- 1) x ) (* 1 y ) ) 0) (>= (+ (* 3068 1) (* 1 x ) (* (- 2) y ) ) 0) (>= (+ (* (- 1) 1) (* 1 x ) ) 0) (>= (+ (* 1 s_12 ) (* 1 s_13 x ) (* 1 s_14 x y ) (* 1 s_15 x x ) (* 1 s_16 y ) (* 1 s_17 y y ) ) 0) ) (>= (+ (* 1 c_0 ) (* (- 1) c_1 ) (* 1 c_1 x ) (* (- 1) c_2 ) (* 2 c_2 x ) (* 1 c_2 x y ) (* (- 1) c_2 x x ) (* (- 1) c_2 y ) (* 1 c_3 ) (* (- 2) c_3 x ) (* 1 c_3 x x ) (* 1 c_4 ) (* (- 1) c_4 x ) (* 1 c_4 y ) (* 1 c_5 ) (* (- 2) c_5 x ) (* (- 2) c_5 x y ) (* 1 c_5 x x ) (* 2 c_5 y ) (* 1 c_5 y y ) ) 0) )))
(assert (forall ((x Real) (y Real) ) (=> (and (>= (+ (* 1 x ) (* (- 1) y ) ) 0) (>= (+ (* 1024 1) (* (- 1) x ) (* 1 y ) ) 0) (>= (+ (* 3068 1) (* 1 x ) (* (- 2) y ) ) 0) (>= (+ (* (- 1) 1) (* 1 x ) ) 0) (>= (+ (* 1 s_12 ) (* 1 s_13 x ) (* 1 s_14 x y ) (* 1 s_15 x x ) (* 1 s_16 y ) (* 1 s_17 y y ) ) 0) ) (>= (+ (* (- 1) 1) (* (- 1) c_0 ) (* 1 c_1 ) (* (- 1) c_1 x ) (* 1 c_12 ) (* 1 c_13 x ) (* 1 c_14 x y ) (* 1 c_15 x x ) (* 1 c_16 y ) (* 1 c_17 y y ) (* 1 c_2 ) (* (- 2) c_2 x ) (* (- 1) c_2 x y ) (* 1 c_2 x x ) (* 1 c_2 y ) (* (- 1) c_3 ) (* 2 c_3 x ) (* (- 1) c_3 x x ) (* (- 1) c_4 ) (* 1 c_4 x ) (* (- 1) c_4 y ) (* (- 1) c_5 ) (* 2 c_5 x ) (* 2 c_5 x y ) (* (- 1) c_5 x x ) (* (- 2) c_5 y ) (* (- 1) c_5 y y ) ) 0) )))
(assert (forall ((x Real) (y Real) ) (=> (and (>= (+ (* 1024 1) (* (- 1) x ) (* 1 y ) ) 0) (>= (+ (* 3068 1) (* 1 x ) (* (- 2) y ) ) 0) (>= (+ (* (- 1) 1) (* 1 x ) ) 0) (>= (+ (* 1 s_12 ) (* 1 s_13 x ) (* 1 s_14 x y ) (* 1 s_15 x x ) (* 1 s_16 y ) (* 1 s_17 y y ) ) 0) ) (>= (+ (* 1 s_0 ) (* (- 1) s_1 ) (* 1 s_1 x ) (* (- 1) s_2 ) (* 2 s_2 x ) (* 1 s_2 x y ) (* (- 1) s_2 x x ) (* (- 1) s_2 y ) (* 1 s_3 ) (* (- 2) s_3 x ) (* 1 s_3 x x ) (* 1 s_4 ) (* (- 1) s_4 x ) (* 1 s_4 y ) (* 1 s_5 ) (* (- 2) s_5 x ) (* (- 2) s_5 x y ) (* 1 s_5 x x ) (* 2 s_5 y ) (* 1 s_5 y y ) ) 0) )))
(assert (forall ((x Real) (y Real) ) (=> (and (>= (+ (* 1024 1) (* (- 1) x ) (* 1 y ) ) 0) (>= (+ (* 3068 1) (* 1 x ) (* (- 2) y ) ) 0) (>= (+ (* (- 1) 1) (* 1 x ) ) 0) (>= (+ (* 1 s_12 ) (* 1 s_13 x ) (* 1 s_14 x y ) (* 1 s_15 x x ) (* 1 s_16 y ) (* 1 s_17 y y ) ) 0) ) (>= (+ (* 1 c_0 ) (* (- 1) c_1 ) (* 1 c_1 x ) (* (- 1) c_2 ) (* 2 c_2 x ) (* 1 c_2 x y ) (* (- 1) c_2 x x ) (* (- 1) c_2 y ) (* 1 c_3 ) (* (- 2) c_3 x ) (* 1 c_3 x x ) (* 1 c_4 ) (* (- 1) c_4 x ) (* 1 c_4 y ) (* 1 c_5 ) (* (- 2) c_5 x ) (* (- 2) c_5 x y ) (* 1 c_5 x x ) (* 2 c_5 y ) (* 1 c_5 y y ) ) 0) )))
(assert (forall ((x Real) (y Real) ) (=> (and (>= (+ (* 1024 1) (* (- 1) x ) (* 1 y ) ) 0) (>= (+ (* 3068 1) (* 1 x ) (* (- 2) y ) ) 0) (>= (+ (* (- 1) 1) (* 1 x ) ) 0) (>= (+ (* 1 s_12 ) (* 1 s_13 x ) (* 1 s_14 x y ) (* 1 s_15 x x ) (* 1 s_16 y ) (* 1 s_17 y y ) ) 0) ) (>= (+ (* (- 1) 1) (* (- 1) c_0 ) (* 1 c_1 ) (* (- 1) c_1 x ) (* 1 c_12 ) (* 1 c_13 x ) (* 1 c_14 x y ) (* 1 c_15 x x ) (* 1 c_16 y ) (* 1 c_17 y y ) (* 1 c_2 ) (* (- 2) c_2 x ) (* (- 1) c_2 x y ) (* 1 c_2 x x ) (* 1 c_2 y ) (* (- 1) c_3 ) (* 2 c_3 x ) (* (- 1) c_3 x x ) (* (- 1) c_4 ) (* 1 c_4 x ) (* (- 1) c_4 y ) (* (- 1) c_5 ) (* 2 c_5 x ) (* 2 c_5 x y ) (* (- 1) c_5 x x ) (* (- 2) c_5 y ) (* (- 1) c_5 y y ) ) 0) )))

(check-sat)
(get-model)
